; Benchmark for LTL-sketching problem
(set-logic QF_UF)
(set-info :status unknown)
(declare-fun z_0_0_0 () Bool)
(declare-fun z_0_1_0 () Bool)
(declare-fun z_0_2_0 () Bool)
(declare-fun z_0_3_0 () Bool)
(declare-fun z_0_4_0 () Bool)
(declare-fun z_0_5_0 () Bool)
(declare-fun z_0_6_0 () Bool)
(declare-fun z_0_7_0 () Bool)
(declare-fun z_0_8_0 () Bool)
(declare-fun z_0_9_0 () Bool)
(declare-fun z_0_10_0 () Bool)
(declare-fun z_0_11_0 () Bool)
(declare-fun z_0_12_0 () Bool)
(declare-fun z_0_13_0 () Bool)
(declare-fun z_0_14_0 () Bool)
(declare-fun z_0_15_0 () Bool)
(declare-fun z_0_16_0 () Bool)
(declare-fun z_0_17_0 () Bool)
(declare-fun z_0_18_0 () Bool)
(declare-fun z_0_19_0 () Bool)
(declare-fun z_2_0_0 () Bool)
(declare-fun x_0_! () Bool)
(declare-fun x_0_X () Bool)
(declare-fun x_0_F () Bool)
(declare-fun x_0_G () Bool)
(declare-fun z_2_1_0 () Bool)
(declare-fun z_2_2_0 () Bool)
(declare-fun z_2_3_0 () Bool)
(declare-fun z_2_4_0 () Bool)
(declare-fun z_2_5_0 () Bool)
(declare-fun z_2_6_0 () Bool)
(declare-fun z_2_7_0 () Bool)
(declare-fun z_2_8_0 () Bool)
(declare-fun z_2_9_0 () Bool)
(declare-fun z_2_10_0 () Bool)
(declare-fun z_2_10_1 () Bool)
(declare-fun z_0_10_1 () Bool)
(declare-fun z_2_10_2 () Bool)
(declare-fun z_0_10_2 () Bool)
(declare-fun z_2_11_0 () Bool)
(declare-fun z_2_11_1 () Bool)
(declare-fun z_0_11_1 () Bool)
(declare-fun z_2_11_2 () Bool)
(declare-fun z_0_11_2 () Bool)
(declare-fun z_2_12_0 () Bool)
(declare-fun z_2_12_1 () Bool)
(declare-fun z_0_12_1 () Bool)
(declare-fun z_2_12_2 () Bool)
(declare-fun z_0_12_2 () Bool)
(declare-fun z_2_12_3 () Bool)
(declare-fun z_0_12_3 () Bool)
(declare-fun z_2_13_0 () Bool)
(declare-fun z_2_13_1 () Bool)
(declare-fun z_0_13_1 () Bool)
(declare-fun z_2_13_2 () Bool)
(declare-fun z_0_13_2 () Bool)
(declare-fun z_2_13_3 () Bool)
(declare-fun z_0_13_3 () Bool)
(declare-fun z_2_14_0 () Bool)
(declare-fun z_2_14_1 () Bool)
(declare-fun z_0_14_1 () Bool)
(declare-fun z_2_14_2 () Bool)
(declare-fun z_0_14_2 () Bool)
(declare-fun z_2_14_3 () Bool)
(declare-fun z_0_14_3 () Bool)
(declare-fun z_2_14_4 () Bool)
(declare-fun z_0_14_4 () Bool)
(declare-fun z_2_14_5 () Bool)
(declare-fun z_0_14_5 () Bool)
(declare-fun z_2_14_6 () Bool)
(declare-fun z_0_14_6 () Bool)
(declare-fun z_2_14_7 () Bool)
(declare-fun z_0_14_7 () Bool)
(declare-fun z_2_15_0 () Bool)
(declare-fun z_2_15_1 () Bool)
(declare-fun z_0_15_1 () Bool)
(declare-fun z_2_15_2 () Bool)
(declare-fun z_0_15_2 () Bool)
(declare-fun z_2_15_3 () Bool)
(declare-fun z_0_15_3 () Bool)
(declare-fun z_2_15_4 () Bool)
(declare-fun z_0_15_4 () Bool)
(declare-fun z_2_15_5 () Bool)
(declare-fun z_0_15_5 () Bool)
(declare-fun z_2_16_0 () Bool)
(declare-fun z_2_16_1 () Bool)
(declare-fun z_0_16_1 () Bool)
(declare-fun z_2_16_2 () Bool)
(declare-fun z_0_16_2 () Bool)
(declare-fun z_2_16_3 () Bool)
(declare-fun z_0_16_3 () Bool)
(declare-fun z_2_16_4 () Bool)
(declare-fun z_0_16_4 () Bool)
(declare-fun z_2_16_5 () Bool)
(declare-fun z_0_16_5 () Bool)
(declare-fun z_2_16_6 () Bool)
(declare-fun z_0_16_6 () Bool)
(declare-fun z_2_17_0 () Bool)
(declare-fun z_2_17_1 () Bool)
(declare-fun z_0_17_1 () Bool)
(declare-fun z_2_18_0 () Bool)
(declare-fun z_2_18_1 () Bool)
(declare-fun z_0_18_1 () Bool)
(declare-fun z_2_18_2 () Bool)
(declare-fun z_0_18_2 () Bool)
(declare-fun z_2_18_3 () Bool)
(declare-fun z_0_18_3 () Bool)
(declare-fun z_2_18_4 () Bool)
(declare-fun z_0_18_4 () Bool)
(declare-fun z_2_18_5 () Bool)
(declare-fun z_0_18_5 () Bool)
(declare-fun z_2_18_6 () Bool)
(declare-fun z_0_18_6 () Bool)
(declare-fun z_2_19_0 () Bool)
(declare-fun z_2_19_1 () Bool)
(declare-fun z_0_19_1 () Bool)
(declare-fun z_2_19_2 () Bool)
(declare-fun z_0_19_2 () Bool)
(declare-fun z_2_19_3 () Bool)
(declare-fun z_0_19_3 () Bool)
(declare-fun x_2_p () Bool)
(declare-fun x_2_-> () Bool)
(declare-fun x_2_U () Bool)
(declare-fun x_2_v () Bool)
(declare-fun x_2_& () Bool)
(declare-fun x_2_X () Bool)
(declare-fun x_2_! () Bool)
(declare-fun x_2_F () Bool)
(declare-fun x_2_G () Bool)
(assert
 (= z_0_0_0 true))
(assert
 (= z_0_1_0 true))
(assert
 (= z_0_2_0 true))
(assert
 (= z_0_3_0 true))
(assert
 (= z_0_4_0 true))
(assert
 (= z_0_5_0 true))
(assert
 (= z_0_6_0 true))
(assert
 (= z_0_7_0 true))
(assert
 (= z_0_8_0 true))
(assert
 (= z_0_9_0 true))
(assert
 (= z_0_10_0 false))
(assert
 (= z_0_11_0 false))
(assert
 (= z_0_12_0 false))
(assert
 (= z_0_13_0 false))
(assert
 (= z_0_14_0 false))
(assert
 (= z_0_15_0 false))
(assert
 (= z_0_16_0 false))
(assert
 (= z_0_17_0 false))
(assert
 (= z_0_18_0 false))
(assert
 (= z_0_19_0 false))
(assert
 (=> x_0_! (= z_0_0_0 (not z_2_0_0))))
(assert
 (let (($x1456 (= z_0_0_0 z_2_0_0)))
 (=> x_0_X $x1456)))
(assert
 (=> x_0_F (= z_0_0_0 (or z_2_0_0))))
(assert
 (=> x_0_G (= z_0_0_0 (and z_2_0_0))))
(assert
 (=> x_0_! (= z_0_1_0 (not z_2_1_0))))
(assert
 (let (($x1514 (= z_0_1_0 z_2_1_0)))
 (=> x_0_X $x1514)))
(assert
 (=> x_0_F (= z_0_1_0 (or z_2_1_0))))
(assert
 (=> x_0_G (= z_0_1_0 (and z_2_1_0))))
(assert
 (=> x_0_! (= z_0_2_0 (not z_2_2_0))))
(assert
 (let (($x1493 (= z_0_2_0 z_2_2_0)))
 (=> x_0_X $x1493)))
(assert
 (=> x_0_F (= z_0_2_0 (or z_2_2_0))))
(assert
 (=> x_0_G (= z_0_2_0 (and z_2_2_0))))
(assert
 (=> x_0_! (= z_0_3_0 (not z_2_3_0))))
(assert
 (let (($x1470 (= z_0_3_0 z_2_3_0)))
 (=> x_0_X $x1470)))
(assert
 (=> x_0_F (= z_0_3_0 (or z_2_3_0))))
(assert
 (=> x_0_G (= z_0_3_0 (and z_2_3_0))))
(assert
 (=> x_0_! (= z_0_4_0 (not z_2_4_0))))
(assert
 (let (($x1447 (= z_0_4_0 z_2_4_0)))
 (=> x_0_X $x1447)))
(assert
 (=> x_0_F (= z_0_4_0 (or z_2_4_0))))
(assert
 (=> x_0_G (= z_0_4_0 (and z_2_4_0))))
(assert
 (=> x_0_! (= z_0_5_0 (not z_2_5_0))))
(assert
 (let (($x1428 (= z_0_5_0 z_2_5_0)))
 (=> x_0_X $x1428)))
(assert
 (=> x_0_F (= z_0_5_0 (or z_2_5_0))))
(assert
 (=> x_0_G (= z_0_5_0 (and z_2_5_0))))
(assert
 (=> x_0_! (= z_0_6_0 (not z_2_6_0))))
(assert
 (let (($x1407 (= z_0_6_0 z_2_6_0)))
 (=> x_0_X $x1407)))
(assert
 (=> x_0_F (= z_0_6_0 (or z_2_6_0))))
(assert
 (=> x_0_G (= z_0_6_0 (and z_2_6_0))))
(assert
 (=> x_0_! (= z_0_7_0 (not z_2_7_0))))
(assert
 (let (($x1383 (= z_0_7_0 z_2_7_0)))
 (=> x_0_X $x1383)))
(assert
 (=> x_0_F (= z_0_7_0 (or z_2_7_0))))
(assert
 (=> x_0_G (= z_0_7_0 (and z_2_7_0))))
(assert
 (=> x_0_! (= z_0_8_0 (not z_2_8_0))))
(assert
 (let (($x1363 (= z_0_8_0 z_2_8_0)))
 (=> x_0_X $x1363)))
(assert
 (=> x_0_F (= z_0_8_0 (or z_2_8_0))))
(assert
 (=> x_0_G (= z_0_8_0 (and z_2_8_0))))
(assert
 (=> x_0_! (= z_0_9_0 (not z_2_9_0))))
(assert
 (let (($x1341 (= z_0_9_0 z_2_9_0)))
 (=> x_0_X $x1341)))
(assert
 (=> x_0_F (= z_0_9_0 (or z_2_9_0))))
(assert
 (=> x_0_G (= z_0_9_0 (and z_2_9_0))))
(assert
 (=> x_0_! (= z_0_10_0 (not z_2_10_0))))
(assert
 (let (($x3821 (= z_0_10_0 z_2_10_1)))
 (=> x_0_X $x3821)))
(assert
 (=> x_0_F (= z_0_10_0 (or z_2_10_0 z_0_10_1))))
(assert
 (let (($x3831 (= z_0_10_0 (and z_2_10_0 z_0_10_1))))
 (=> x_0_G $x3831)))
(assert
 (=> x_0_! (= z_0_10_1 (not z_2_10_1))))
(assert
 (let (($x3841 (= z_0_10_1 z_2_10_2)))
 (=> x_0_X $x3841)))
(assert
 (=> x_0_F (= z_0_10_1 (or z_2_10_1 z_0_10_2))))
(assert
 (let (($x3851 (= z_0_10_1 (and z_2_10_1 z_0_10_2))))
 (=> x_0_G $x3851)))
(assert
 (=> x_0_! (= z_0_10_2 (not z_2_10_2))))
(assert
 (let (($x3860 (= z_0_10_2 z_2_10_2)))
 (=> x_0_X $x3860)))
(assert
 (=> x_0_F (= z_0_10_2 (or z_2_10_2))))
(assert
 (=> x_0_G (= z_0_10_2 (and z_2_10_2))))
(assert
 (=> x_0_! (= z_0_11_0 (not z_2_11_0))))
(assert
 (let (($x3879 (= z_0_11_0 z_2_11_1)))
 (=> x_0_X $x3879)))
(assert
 (=> x_0_F (= z_0_11_0 (or z_2_11_0 z_0_11_1))))
(assert
 (let (($x3889 (= z_0_11_0 (and z_2_11_0 z_0_11_1))))
 (=> x_0_G $x3889)))
(assert
 (=> x_0_! (= z_0_11_1 (not z_2_11_1))))
(assert
 (let (($x3899 (= z_0_11_1 z_2_11_2)))
 (=> x_0_X $x3899)))
(assert
 (=> x_0_F (= z_0_11_1 (or z_2_11_1 z_0_11_2))))
(assert
 (let (($x3909 (= z_0_11_1 (and z_2_11_1 z_0_11_2))))
 (=> x_0_G $x3909)))
(assert
 (=> x_0_! (= z_0_11_2 (not z_2_11_2))))
(assert
 (let (($x3918 (= z_0_11_2 z_2_11_0)))
 (=> x_0_X $x3918)))
(assert
 (let (($x3922 (= z_0_11_2 (or z_2_11_0 z_2_11_1 z_2_11_2))))
 (=> x_0_F $x3922)))
(assert
 (let (($x3926 (= z_0_11_2 (and z_2_11_0 z_2_11_1 z_2_11_2))))
 (=> x_0_G $x3926)))
(assert
 (=> x_0_! (= z_0_12_0 (not z_2_12_0))))
(assert
 (let (($x3937 (= z_0_12_0 z_2_12_1)))
 (=> x_0_X $x3937)))
(assert
 (=> x_0_F (= z_0_12_0 (or z_2_12_0 z_0_12_1))))
(assert
 (let (($x3947 (= z_0_12_0 (and z_2_12_0 z_0_12_1))))
 (=> x_0_G $x3947)))
(assert
 (=> x_0_! (= z_0_12_1 (not z_2_12_1))))
(assert
 (let (($x3957 (= z_0_12_1 z_2_12_2)))
 (=> x_0_X $x3957)))
(assert
 (=> x_0_F (= z_0_12_1 (or z_2_12_1 z_0_12_2))))
(assert
 (let (($x3967 (= z_0_12_1 (and z_2_12_1 z_0_12_2))))
 (=> x_0_G $x3967)))
(assert
 (=> x_0_! (= z_0_12_2 (not z_2_12_2))))
(assert
 (let (($x3977 (= z_0_12_2 z_2_12_3)))
 (=> x_0_X $x3977)))
(assert
 (=> x_0_F (= z_0_12_2 (or z_2_12_2 z_0_12_3))))
(assert
 (let (($x3987 (= z_0_12_2 (and z_2_12_2 z_0_12_3))))
 (=> x_0_G $x3987)))
(assert
 (=> x_0_! (= z_0_12_3 (not z_2_12_3))))
(assert
 (let (($x3996 (= z_0_12_3 z_2_12_1)))
 (=> x_0_X $x3996)))
(assert
 (let (($x4000 (= z_0_12_3 (or z_2_12_1 z_2_12_2 z_2_12_3))))
 (=> x_0_F $x4000)))
(assert
 (let (($x4004 (= z_0_12_3 (and z_2_12_1 z_2_12_2 z_2_12_3))))
 (=> x_0_G $x4004)))
(assert
 (=> x_0_! (= z_0_13_0 (not z_2_13_0))))
(assert
 (let (($x4015 (= z_0_13_0 z_2_13_1)))
 (=> x_0_X $x4015)))
(assert
 (=> x_0_F (= z_0_13_0 (or z_2_13_0 z_0_13_1))))
(assert
 (let (($x4025 (= z_0_13_0 (and z_2_13_0 z_0_13_1))))
 (=> x_0_G $x4025)))
(assert
 (=> x_0_! (= z_0_13_1 (not z_2_13_1))))
(assert
 (let (($x4035 (= z_0_13_1 z_2_13_2)))
 (=> x_0_X $x4035)))
(assert
 (=> x_0_F (= z_0_13_1 (or z_2_13_1 z_0_13_2))))
(assert
 (let (($x4045 (= z_0_13_1 (and z_2_13_1 z_0_13_2))))
 (=> x_0_G $x4045)))
(assert
 (=> x_0_! (= z_0_13_2 (not z_2_13_2))))
(assert
 (let (($x4055 (= z_0_13_2 z_2_13_3)))
 (=> x_0_X $x4055)))
(assert
 (=> x_0_F (= z_0_13_2 (or z_2_13_2 z_0_13_3))))
(assert
 (let (($x4065 (= z_0_13_2 (and z_2_13_2 z_0_13_3))))
 (=> x_0_G $x4065)))
(assert
 (=> x_0_! (= z_0_13_3 (not z_2_13_3))))
(assert
 (let (($x4074 (= z_0_13_3 z_2_13_2)))
 (=> x_0_X $x4074)))
(assert
 (let (($x4078 (= z_0_13_3 (or z_2_13_2 z_2_13_3))))
 (=> x_0_F $x4078)))
(assert
 (let (($x4082 (= z_0_13_3 (and z_2_13_2 z_2_13_3))))
 (=> x_0_G $x4082)))
(assert
 (=> x_0_! (= z_0_14_0 (not z_2_14_0))))
(assert
 (let (($x4093 (= z_0_14_0 z_2_14_1)))
 (=> x_0_X $x4093)))
(assert
 (=> x_0_F (= z_0_14_0 (or z_2_14_0 z_0_14_1))))
(assert
 (let (($x4103 (= z_0_14_0 (and z_2_14_0 z_0_14_1))))
 (=> x_0_G $x4103)))
(assert
 (=> x_0_! (= z_0_14_1 (not z_2_14_1))))
(assert
 (let (($x4113 (= z_0_14_1 z_2_14_2)))
 (=> x_0_X $x4113)))
(assert
 (=> x_0_F (= z_0_14_1 (or z_2_14_1 z_0_14_2))))
(assert
 (let (($x4123 (= z_0_14_1 (and z_2_14_1 z_0_14_2))))
 (=> x_0_G $x4123)))
(assert
 (=> x_0_! (= z_0_14_2 (not z_2_14_2))))
(assert
 (let (($x4133 (= z_0_14_2 z_2_14_3)))
 (=> x_0_X $x4133)))
(assert
 (=> x_0_F (= z_0_14_2 (or z_2_14_2 z_0_14_3))))
(assert
 (let (($x4143 (= z_0_14_2 (and z_2_14_2 z_0_14_3))))
 (=> x_0_G $x4143)))
(assert
 (=> x_0_! (= z_0_14_3 (not z_2_14_3))))
(assert
 (let (($x4153 (= z_0_14_3 z_2_14_4)))
 (=> x_0_X $x4153)))
(assert
 (=> x_0_F (= z_0_14_3 (or z_2_14_3 z_0_14_4))))
(assert
 (let (($x4163 (= z_0_14_3 (and z_2_14_3 z_0_14_4))))
 (=> x_0_G $x4163)))
(assert
 (=> x_0_! (= z_0_14_4 (not z_2_14_4))))
(assert
 (let (($x4173 (= z_0_14_4 z_2_14_5)))
 (=> x_0_X $x4173)))
(assert
 (=> x_0_F (= z_0_14_4 (or z_2_14_4 z_0_14_5))))
(assert
 (let (($x4183 (= z_0_14_4 (and z_2_14_4 z_0_14_5))))
 (=> x_0_G $x4183)))
(assert
 (=> x_0_! (= z_0_14_5 (not z_2_14_5))))
(assert
 (let (($x4193 (= z_0_14_5 z_2_14_6)))
 (=> x_0_X $x4193)))
(assert
 (=> x_0_F (= z_0_14_5 (or z_2_14_5 z_0_14_6))))
(assert
 (let (($x4203 (= z_0_14_5 (and z_2_14_5 z_0_14_6))))
 (=> x_0_G $x4203)))
(assert
 (=> x_0_! (= z_0_14_6 (not z_2_14_6))))
(assert
 (let (($x4213 (= z_0_14_6 z_2_14_7)))
 (=> x_0_X $x4213)))
(assert
 (=> x_0_F (= z_0_14_6 (or z_2_14_6 z_0_14_7))))
(assert
 (let (($x4223 (= z_0_14_6 (and z_2_14_6 z_0_14_7))))
 (=> x_0_G $x4223)))
(assert
 (=> x_0_! (= z_0_14_7 (not z_2_14_7))))
(assert
 (let (($x4232 (= z_0_14_7 z_2_14_4)))
 (=> x_0_X $x4232)))
(assert
 (let (($x4236 (= z_0_14_7 (or z_2_14_4 z_2_14_5 z_2_14_6 z_2_14_7))))
 (=> x_0_F $x4236)))
(assert
 (let (($x4240 (= z_0_14_7 (and z_2_14_4 z_2_14_5 z_2_14_6 z_2_14_7))))
 (=> x_0_G $x4240)))
(assert
 (=> x_0_! (= z_0_15_0 (not z_2_15_0))))
(assert
 (let (($x4251 (= z_0_15_0 z_2_15_1)))
 (=> x_0_X $x4251)))
(assert
 (=> x_0_F (= z_0_15_0 (or z_2_15_0 z_0_15_1))))
(assert
 (let (($x4261 (= z_0_15_0 (and z_2_15_0 z_0_15_1))))
 (=> x_0_G $x4261)))
(assert
 (=> x_0_! (= z_0_15_1 (not z_2_15_1))))
(assert
 (let (($x4271 (= z_0_15_1 z_2_15_2)))
 (=> x_0_X $x4271)))
(assert
 (=> x_0_F (= z_0_15_1 (or z_2_15_1 z_0_15_2))))
(assert
 (let (($x4281 (= z_0_15_1 (and z_2_15_1 z_0_15_2))))
 (=> x_0_G $x4281)))
(assert
 (=> x_0_! (= z_0_15_2 (not z_2_15_2))))
(assert
 (let (($x4291 (= z_0_15_2 z_2_15_3)))
 (=> x_0_X $x4291)))
(assert
 (=> x_0_F (= z_0_15_2 (or z_2_15_2 z_0_15_3))))
(assert
 (let (($x4301 (= z_0_15_2 (and z_2_15_2 z_0_15_3))))
 (=> x_0_G $x4301)))
(assert
 (=> x_0_! (= z_0_15_3 (not z_2_15_3))))
(assert
 (let (($x4311 (= z_0_15_3 z_2_15_4)))
 (=> x_0_X $x4311)))
(assert
 (=> x_0_F (= z_0_15_3 (or z_2_15_3 z_0_15_4))))
(assert
 (let (($x4321 (= z_0_15_3 (and z_2_15_3 z_0_15_4))))
 (=> x_0_G $x4321)))
(assert
 (=> x_0_! (= z_0_15_4 (not z_2_15_4))))
(assert
 (let (($x4331 (= z_0_15_4 z_2_15_5)))
 (=> x_0_X $x4331)))
(assert
 (=> x_0_F (= z_0_15_4 (or z_2_15_4 z_0_15_5))))
(assert
 (let (($x4341 (= z_0_15_4 (and z_2_15_4 z_0_15_5))))
 (=> x_0_G $x4341)))
(assert
 (=> x_0_! (= z_0_15_5 (not z_2_15_5))))
(assert
 (let (($x4350 (= z_0_15_5 z_2_15_2)))
 (=> x_0_X $x4350)))
(assert
 (let (($x4354 (= z_0_15_5 (or z_2_15_2 z_2_15_3 z_2_15_4 z_2_15_5))))
 (=> x_0_F $x4354)))
(assert
 (let (($x4358 (= z_0_15_5 (and z_2_15_2 z_2_15_3 z_2_15_4 z_2_15_5))))
 (=> x_0_G $x4358)))
(assert
 (=> x_0_! (= z_0_16_0 (not z_2_16_0))))
(assert
 (let (($x4369 (= z_0_16_0 z_2_16_1)))
 (=> x_0_X $x4369)))
(assert
 (=> x_0_F (= z_0_16_0 (or z_2_16_0 z_0_16_1))))
(assert
 (let (($x4379 (= z_0_16_0 (and z_2_16_0 z_0_16_1))))
 (=> x_0_G $x4379)))
(assert
 (=> x_0_! (= z_0_16_1 (not z_2_16_1))))
(assert
 (let (($x4389 (= z_0_16_1 z_2_16_2)))
 (=> x_0_X $x4389)))
(assert
 (=> x_0_F (= z_0_16_1 (or z_2_16_1 z_0_16_2))))
(assert
 (let (($x4399 (= z_0_16_1 (and z_2_16_1 z_0_16_2))))
 (=> x_0_G $x4399)))
(assert
 (=> x_0_! (= z_0_16_2 (not z_2_16_2))))
(assert
 (let (($x4409 (= z_0_16_2 z_2_16_3)))
 (=> x_0_X $x4409)))
(assert
 (=> x_0_F (= z_0_16_2 (or z_2_16_2 z_0_16_3))))
(assert
 (let (($x4419 (= z_0_16_2 (and z_2_16_2 z_0_16_3))))
 (=> x_0_G $x4419)))
(assert
 (=> x_0_! (= z_0_16_3 (not z_2_16_3))))
(assert
 (let (($x4429 (= z_0_16_3 z_2_16_4)))
 (=> x_0_X $x4429)))
(assert
 (=> x_0_F (= z_0_16_3 (or z_2_16_3 z_0_16_4))))
(assert
 (let (($x4439 (= z_0_16_3 (and z_2_16_3 z_0_16_4))))
 (=> x_0_G $x4439)))
(assert
 (=> x_0_! (= z_0_16_4 (not z_2_16_4))))
(assert
 (let (($x4449 (= z_0_16_4 z_2_16_5)))
 (=> x_0_X $x4449)))
(assert
 (=> x_0_F (= z_0_16_4 (or z_2_16_4 z_0_16_5))))
(assert
 (let (($x4459 (= z_0_16_4 (and z_2_16_4 z_0_16_5))))
 (=> x_0_G $x4459)))
(assert
 (=> x_0_! (= z_0_16_5 (not z_2_16_5))))
(assert
 (let (($x4469 (= z_0_16_5 z_2_16_6)))
 (=> x_0_X $x4469)))
(assert
 (=> x_0_F (= z_0_16_5 (or z_2_16_5 z_0_16_6))))
(assert
 (let (($x4479 (= z_0_16_5 (and z_2_16_5 z_0_16_6))))
 (=> x_0_G $x4479)))
(assert
 (=> x_0_! (= z_0_16_6 (not z_2_16_6))))
(assert
 (let (($x4488 (= z_0_16_6 z_2_16_3)))
 (=> x_0_X $x4488)))
(assert
 (let (($x4492 (= z_0_16_6 (or z_2_16_3 z_2_16_4 z_2_16_5 z_2_16_6))))
 (=> x_0_F $x4492)))
(assert
 (let (($x4496 (= z_0_16_6 (and z_2_16_3 z_2_16_4 z_2_16_5 z_2_16_6))))
 (=> x_0_G $x4496)))
(assert
 (=> x_0_! (= z_0_17_0 (not z_2_17_0))))
(assert
 (let (($x4507 (= z_0_17_0 z_2_17_1)))
 (=> x_0_X $x4507)))
(assert
 (=> x_0_F (= z_0_17_0 (or z_2_17_0 z_0_17_1))))
(assert
 (let (($x4517 (= z_0_17_0 (and z_2_17_0 z_0_17_1))))
 (=> x_0_G $x4517)))
(assert
 (=> x_0_! (= z_0_17_1 (not z_2_17_1))))
(assert
 (let (($x4526 (= z_0_17_1 z_2_17_1)))
 (=> x_0_X $x4526)))
(assert
 (=> x_0_F (= z_0_17_1 (or z_2_17_1))))
(assert
 (=> x_0_G (= z_0_17_1 (and z_2_17_1))))
(assert
 (=> x_0_! (= z_0_18_0 (not z_2_18_0))))
(assert
 (let (($x4545 (= z_0_18_0 z_2_18_1)))
 (=> x_0_X $x4545)))
(assert
 (=> x_0_F (= z_0_18_0 (or z_2_18_0 z_0_18_1))))
(assert
 (let (($x4555 (= z_0_18_0 (and z_2_18_0 z_0_18_1))))
 (=> x_0_G $x4555)))
(assert
 (=> x_0_! (= z_0_18_1 (not z_2_18_1))))
(assert
 (let (($x4565 (= z_0_18_1 z_2_18_2)))
 (=> x_0_X $x4565)))
(assert
 (=> x_0_F (= z_0_18_1 (or z_2_18_1 z_0_18_2))))
(assert
 (let (($x4575 (= z_0_18_1 (and z_2_18_1 z_0_18_2))))
 (=> x_0_G $x4575)))
(assert
 (=> x_0_! (= z_0_18_2 (not z_2_18_2))))
(assert
 (let (($x4585 (= z_0_18_2 z_2_18_3)))
 (=> x_0_X $x4585)))
(assert
 (=> x_0_F (= z_0_18_2 (or z_2_18_2 z_0_18_3))))
(assert
 (let (($x4595 (= z_0_18_2 (and z_2_18_2 z_0_18_3))))
 (=> x_0_G $x4595)))
(assert
 (=> x_0_! (= z_0_18_3 (not z_2_18_3))))
(assert
 (let (($x4605 (= z_0_18_3 z_2_18_4)))
 (=> x_0_X $x4605)))
(assert
 (=> x_0_F (= z_0_18_3 (or z_2_18_3 z_0_18_4))))
(assert
 (let (($x4615 (= z_0_18_3 (and z_2_18_3 z_0_18_4))))
 (=> x_0_G $x4615)))
(assert
 (=> x_0_! (= z_0_18_4 (not z_2_18_4))))
(assert
 (let (($x4625 (= z_0_18_4 z_2_18_5)))
 (=> x_0_X $x4625)))
(assert
 (=> x_0_F (= z_0_18_4 (or z_2_18_4 z_0_18_5))))
(assert
 (let (($x4635 (= z_0_18_4 (and z_2_18_4 z_0_18_5))))
 (=> x_0_G $x4635)))
(assert
 (=> x_0_! (= z_0_18_5 (not z_2_18_5))))
(assert
 (let (($x4645 (= z_0_18_5 z_2_18_6)))
 (=> x_0_X $x4645)))
(assert
 (=> x_0_F (= z_0_18_5 (or z_2_18_5 z_0_18_6))))
(assert
 (let (($x4655 (= z_0_18_5 (and z_2_18_5 z_0_18_6))))
 (=> x_0_G $x4655)))
(assert
 (=> x_0_! (= z_0_18_6 (not z_2_18_6))))
(assert
 (let (($x4664 (= z_0_18_6 z_2_18_3)))
 (=> x_0_X $x4664)))
(assert
 (let (($x4668 (= z_0_18_6 (or z_2_18_3 z_2_18_4 z_2_18_5 z_2_18_6))))
 (=> x_0_F $x4668)))
(assert
 (let (($x4672 (= z_0_18_6 (and z_2_18_3 z_2_18_4 z_2_18_5 z_2_18_6))))
 (=> x_0_G $x4672)))
(assert
 (=> x_0_! (= z_0_19_0 (not z_2_19_0))))
(assert
 (let (($x4683 (= z_0_19_0 z_2_19_1)))
 (=> x_0_X $x4683)))
(assert
 (=> x_0_F (= z_0_19_0 (or z_2_19_0 z_0_19_1))))
(assert
 (let (($x4693 (= z_0_19_0 (and z_2_19_0 z_0_19_1))))
 (=> x_0_G $x4693)))
(assert
 (=> x_0_! (= z_0_19_1 (not z_2_19_1))))
(assert
 (let (($x4703 (= z_0_19_1 z_2_19_2)))
 (=> x_0_X $x4703)))
(assert
 (=> x_0_F (= z_0_19_1 (or z_2_19_1 z_0_19_2))))
(assert
 (let (($x4713 (= z_0_19_1 (and z_2_19_1 z_0_19_2))))
 (=> x_0_G $x4713)))
(assert
 (=> x_0_! (= z_0_19_2 (not z_2_19_2))))
(assert
 (let (($x4723 (= z_0_19_2 z_2_19_3)))
 (=> x_0_X $x4723)))
(assert
 (=> x_0_F (= z_0_19_2 (or z_2_19_2 z_0_19_3))))
(assert
 (let (($x4733 (= z_0_19_2 (and z_2_19_2 z_0_19_3))))
 (=> x_0_G $x4733)))
(assert
 (=> x_0_! (= z_0_19_3 (not z_2_19_3))))
(assert
 (let (($x4742 (= z_0_19_3 z_2_19_3)))
 (=> x_0_X $x4742)))
(assert
 (=> x_0_F (= z_0_19_3 (or z_2_19_3))))
(assert
 (=> x_0_G (= z_0_19_3 (and z_2_19_3))))
(assert
 (or x_0_! x_0_X x_0_F x_0_G))
(assert
 (let (($x48 (not x_0_G)))
 (let (($x42 (not x_0_F)))
 (let (($x1139 (or $x42 $x48)))
 (let (($x36 (not x_0_X)))
 (let (($x1138 (or $x36 $x48)))
 (let (($x1137 (or $x36 $x42)))
 (let (($x31 (not x_0_!)))
 (let (($x1136 (or $x31 $x48)))
 (let (($x1135 (or $x31 $x42)))
 (let (($x1134 (or $x31 $x36)))
 (and $x1134 $x1135 $x1136 $x1137 $x1138 $x1139))))))))))))
(assert
 (and true true))
(assert
 (=> x_2_p z_2_0_0))
(assert
 (=> x_2_p z_2_1_0))
(assert
 (=> x_2_p z_2_2_0))
(assert
 (=> x_2_p z_2_3_0))
(assert
 (=> x_2_p z_2_4_0))
(assert
 (=> x_2_p z_2_5_0))
(assert
 (=> x_2_p z_2_6_0))
(assert
 (=> x_2_p z_2_7_0))
(assert
 (=> x_2_p z_2_8_0))
(assert
 (=> x_2_p z_2_9_0))
(assert
 (=> x_2_p z_2_10_0))
(assert
 (let (($x3834 (not z_2_10_1)))
 (=> x_2_p $x3834)))
(assert
 (=> x_2_p z_2_10_2))
(assert
 (=> x_2_p z_2_11_0))
(assert
 (=> x_2_p z_2_11_1))
(assert
 (let (($x3912 (not z_2_11_2)))
 (=> x_2_p $x3912)))
(assert
 (let (($x3930 (not z_2_12_0)))
 (=> x_2_p $x3930)))
(assert
 (let (($x3950 (not z_2_12_1)))
 (=> x_2_p $x3950)))
(assert
 (=> x_2_p z_2_12_2))
(assert
 (=> x_2_p z_2_12_3))
(assert
 (let (($x4008 (not z_2_13_0)))
 (=> x_2_p $x4008)))
(assert
 (let (($x4028 (not z_2_13_1)))
 (=> x_2_p $x4028)))
(assert
 (let (($x4048 (not z_2_13_2)))
 (=> x_2_p $x4048)))
(assert
 (=> x_2_p z_2_13_3))
(assert
 (let (($x4086 (not z_2_14_0)))
 (=> x_2_p $x4086)))
(assert
 (let (($x4106 (not z_2_14_1)))
 (=> x_2_p $x4106)))
(assert
 (let (($x4126 (not z_2_14_2)))
 (=> x_2_p $x4126)))
(assert
 (let (($x4146 (not z_2_14_3)))
 (=> x_2_p $x4146)))
(assert
 (let (($x4166 (not z_2_14_4)))
 (=> x_2_p $x4166)))
(assert
 (let (($x4186 (not z_2_14_5)))
 (=> x_2_p $x4186)))
(assert
 (let (($x4206 (not z_2_14_6)))
 (=> x_2_p $x4206)))
(assert
 (=> x_2_p z_2_14_7))
(assert
 (let (($x4244 (not z_2_15_0)))
 (=> x_2_p $x4244)))
(assert
 (=> x_2_p z_2_15_1))
(assert
 (let (($x4284 (not z_2_15_2)))
 (=> x_2_p $x4284)))
(assert
 (let (($x4304 (not z_2_15_3)))
 (=> x_2_p $x4304)))
(assert
 (=> x_2_p z_2_15_4))
(assert
 (let (($x4344 (not z_2_15_5)))
 (=> x_2_p $x4344)))
(assert
 (let (($x4362 (not z_2_16_0)))
 (=> x_2_p $x4362)))
(assert
 (=> x_2_p z_2_16_1))
(assert
 (let (($x4402 (not z_2_16_2)))
 (=> x_2_p $x4402)))
(assert
 (let (($x4422 (not z_2_16_3)))
 (=> x_2_p $x4422)))
(assert
 (let (($x4442 (not z_2_16_4)))
 (=> x_2_p $x4442)))
(assert
 (=> x_2_p z_2_16_5))
(assert
 (=> x_2_p z_2_16_6))
(assert
 (=> x_2_p z_2_17_0))
(assert
 (let (($x4520 (not z_2_17_1)))
 (=> x_2_p $x4520)))
(assert
 (=> x_2_p z_2_18_0))
(assert
 (let (($x4558 (not z_2_18_1)))
 (=> x_2_p $x4558)))
(assert
 (=> x_2_p z_2_18_2))
(assert
 (let (($x4598 (not z_2_18_3)))
 (=> x_2_p $x4598)))
(assert
 (let (($x4618 (not z_2_18_4)))
 (=> x_2_p $x4618)))
(assert
 (=> x_2_p z_2_18_5))
(assert
 (let (($x4658 (not z_2_18_6)))
 (=> x_2_p $x4658)))
(assert
 (=> x_2_p z_2_19_0))
(assert
 (let (($x4696 (not z_2_19_1)))
 (=> x_2_p $x4696)))
(assert
 (=> x_2_p z_2_19_2))
(assert
 (let (($x4736 (not z_2_19_3)))
 (=> x_2_p $x4736)))
(assert
 (or x_2_p))
(assert
 (let (($x4771 (not x_2_->)))
 (let (($x4769 (not x_2_U)))
 (let (($x4767 (not x_2_v)))
 (let (($x4765 (not x_2_&)))
 (let (($x4763 (not x_2_X)))
 (let (($x4761 (not x_2_!)))
 (let (($x4759 (not x_2_F)))
 (let (($x4757 (not x_2_G)))
 (and $x4757 $x4759 $x4761 $x4763 $x4765 $x4767 $x4769 $x4771))))))))))
(check-sat)

